numNurses = 144;
hours = 54;
demand = [4 26 19 26 19 33 35 34 22 15 1 26 13 14 3 30 19 10 13 30 4 1 2 31 11 11 6 28 19 19 34 33 28 29 31 1 12 14 0 28 24 28 11 0 31 32 25 20 11 35 28 14 14 13];
minHours = 8;
maxHours = 15;
maxConsec = 13;
maxPresence = 28;